Traveling Salesman Problem/TSP_generados/Aleatorio1621105163_19.tsp
NAME: Aleatorio1621105163_19.tsp
COMMENT: Randomly generated scenario
TYPE: TSP
DIMENSION: 19
EDGE_WEIGHT_TYPE: ATT
NODE_COORD_SECTION
1 19.65 14.95
2 47.2 14.29
3 5.6 40.76
4 45.98 21.48
5 48.06 25.44
6 10.8 21.83
7 2.53 22.47
8 15.23 25.1
9 47.48 15.1
10 35.93 0.71
11 46.15 16.2
12 24.52 1.75
13 46.55 36.51
14 15.52 9.82
15 28.1 39.75
16 30.44 39.65
17 31.11 36.29
18 48.69 34.9
19 42.9 17.43
