Traveling Salesman Problem/TSP_generados/Aleatorio1621105163_19.opt.tour
NAME: Aleatorio1621105163_19.opt.tour
COMMENT: Optimal solution for Aleatorio1621105163_19 (162.706690326555)
TYPE: TOUR
DIMENSION: 19
TOUR_SECTION
1 8 6 7 3 15 16 17 13 18 5 4 19 11 9 2 10 12 14
-1
EOF
